instances/p1/p1_6_20-4.dzn
Alphabet = {A,C,G,T};
ns = 6;
nc = 20;
neighbours = [| I(C),I(A),I(A),I(A),I(C),I(C),I(A),I(A),I(C),I(A),I(A),I(A),I(A),I(A),I(A),I(A),I(A),I(A),I(A),I(C) | I(A),I(C),I(A),I(C),I(A),I(A),I(A),I(A),I(C),I(C),I(C),I(A),I(A),I(A),I(C),I(A),I(A),I(G),I(A),I(A) | I(A),I(C),I(A),I(A),I(C),I(A),I(A),I(A),I(A),I(C),I(A),I(A),I(C),I(C),I(A),I(A),I(A),I(A),I(A),I(C) | I(A),I(A),I(C),I(A),I(A),I(A),I(A),I(A),I(C),I(C),I(A),I(A),I(A),I(C),I(C),I(A),I(A),I(A),I(C),I(A) | I(A),I(G),I(A),I(C),I(A),I(A),I(A),I(A),I(C),I(A),I(C),I(C),I(A),I(C),I(C),I(A),I(A),I(A),I(A),I(A) | I(A),I(C),I(C),I(A),I(C),I(C),I(A),I(A),I(A),I(A),I(A),I(A),I(A),I(A),I(C),I(C),I(A),I(A),I(A),I(A) |];
