instances/p1/p1_6_20-4.txt
{
	"num_strings": 6,
	"alphabet": "ACGT",
	"strings": [
		"CAAACCAACAAAAAAAAAAC",
		"ACACAAAACCCAAACAAGAA",
		"ACAACAAAACAACCAAAAAC",
		"AACAAAAACCAAACCAAACA",
		"AGACAAAACACCACCAAAAA",
		"ACCACCAAAAAAAACCAAAA"
	],
	"str_length":[20,20,20,20,20,20]
}